98019.1
225 224 223 222 221 3 4 5 6 7 9 8 10 2 1 0 220 219 218 217 216 215 214 207 209 208 210 212 211 213 206 205 204 203 146 147 148 145 144 143 142 141 140 139 138 137 136 135 134 133 132 131 130 129 128 127 126 125 124 123 122 121 120 119 118 117 116 115 114 113 149 150 151 152 153 154 155 156 157 158 159 160 161 162 163 164 165 166 167 168 169 170 171 172 173 174 175 176 177 178 179 180 181 182 183 184 185 186 187 188 192 200 201 202 195 193 194 190 198 197 196 189 191 199 19 20 21 22 23 25 24 26 18 17 16 15 14 13 12 11 70 66 67 68 65 80 81 82 77 76 69 75 74 71 73 72 78 79 83 84 86 87 88 89 90 91 85 64 63 62 61 60 59 58 57 56 55 54 53 52 51 50 49 48 94 95 97 101 100 42 45 44 43 46 98 99 103 104 106 107 108 109 110 111 41 40 39 38 37 36 35 34 32 30 29 28 27 31 33 112 105 102 96 93 92 47 
